p tw 217 427
1 92
1 160
1 161
1 212
1 213
2 18
2 106
2 107
2 121
2 122
2 134
2 165
2 166
3 65
3 66
3 132
3 147
3 148
3 176
4 103
4 104
4 148
4 149
4 185
4 186
5 16
5 207
5 208
6 66
6 149
6 150
6 186
6 187
7 67
7 130
7 131
7 174
7 175
8 70
8 191
8 192
9 69
9 70
9 190
9 191
10 90
10 91
10 133
10 151
10 152
11 91
11 120
11 121
11 154
11 155
11 164
11 165
12 64
12 65
12 146
12 147
12 184
12 185
13 22
13 101
13 102
14 107
14 119
14 120
14 163
14 164
15 60
15 61
15 177
15 178
16 104
16 105
17 114
17 115
17 129
17 130
17 145
17 146
17 173
17 174
18 58
18 117
18 118
18 134
19 128
19 129
19 171
19 172
20 51
20 88
20 208
20 209
21 68
21 69
21 122
21 123
21 155
21 156
21 166
21 167
21 189
21 190
22 112
22 113
22 199
22 200
23 109
23 110
23 193
23 194
23 215
24 31
24 52
24 92
24 93
24 162
24 213
24 214
24 217
25 108
25 192
25 193
26 156
26 157
26 188
26 189
27 116
27 117
27 210
27 211
28 98
28 99
28 123
28 124
28 138
28 139
28 167
28 168
28 181
28 182
29 99
29 100
29 140
29 141
29 183
29 184
30 80
30 81
30 125
30 126
30 169
30 170
31 46
31 94
31 95
31 162
31 214
32 111
32 112
32 198
32 199
33 82
33 83
33 203
33 204
34 83
34 84
34 143
34 144
35 60
35 135
35 177
36 87
36 88
36 206
36 207
37 71
37 72
37 158
37 159
37 194
37 195
38 81
38 82
38 142
38 143
38 202
38 203
39 62
39 63
39 137
39 138
39 179
39 180
40 127
40 128
40 172
40 173
41 61
41 62
41 136
41 137
41 178
41 179
42 84
42 85
42 144
42 145
42 204
42 205
43 85
43 86
43 205
43 206
44 106
44 119
44 163
45 67
45 68
45 152
45 153
46 49
46 214
47 105
47 150
47 187
48 75
48 76
48 197
48 198
49 161
49 162
49 212
50 96
50 97
50 135
50 136
51 118
51 211
52 73
52 74
52 195
52 196
52 217
53 89
53 90
53 151
54 76
54 77
54 139
54 140
54 201
54 202
55 108
55 109
55 126
55 127
55 170
55 171
56 153
56 154
56 188
57 89
57 131
57 132
57 175
57 176
58 78
58 79
58 124
58 125
58 133
58 134
58 141
58 142
58 168
58 169
59 71
59 215
59 216
60 61
61 62
62 63
63 64
64 65
65 66
67 68
68 69
69 70
71 72
72 73
73 74
74 75
75 76
76 77
77 78
78 79
79 80
80 81
81 82
82 83
83 84
84 85
85 86
86 87
87 88
89 90
90 91
92 93
93 94
94 95
95 96
96 97
97 98
98 99
99 100
100 101
101 102
102 103
103 104
104 105
106 107
108 109
109 110
110 111
111 112
112 113
113 114
114 115
115 116
116 117
117 118
119 120
120 121
121 122
122 123
123 124
124 125
125 126
126 127
127 128
128 129
129 130
130 131
131 132
133 134
135 136
136 137
137 138
138 139
139 140
140 141
141 142
142 143
143 144
144 145
145 146
146 147
147 148
148 149
149 150
151 152
152 153
153 154
154 155
155 156
156 157
157 158
158 159
159 160
160 161
161 162
163 164
164 165
165 166
166 167
167 168
168 169
169 170
170 171
171 172
172 173
173 174
174 175
175 176
177 178
178 179
179 180
180 181
181 182
182 183
183 184
184 185
185 186
186 187
188 189
189 190
190 191
191 192
192 193
193 194
194 195
195 196
196 197
197 198
198 199
199 200
200 201
201 202
202 203
203 204
204 205
205 206
206 207
207 208
208 209
209 210
210 211
212 213
213 214
215 216
216 217
